1079.97,52.43,62.84
1043.52,54.26,65.03
986.35,57.41,68.8
1087.69,52.06,62.39
999.33,56.66,67.91
1012.63,55.92,67.02
1072.43,52.8,63.28
1026.21,55.18,66.13
1006.09,56.28,67.45
975.52,58.05,69.57
1083.56,52.26,62.63
1009.25,56.11,67.24
1032.2,54.86,65.75
1006.39,56.27,67.43
991.34,57.12,68.46
1138.86,49.72,59.59
1030.44,54.95,65.86
1093.86,51.77,62.04
1083.21,52.28,62.65
1065.9,53.13,63.67
